Version identifier: 22.1.1.0 | 2022-11-28 | 9160aff4d
CPXPARAM_Threads                                 8
CPXPARAM_Emphasis_MIP                            5
CPXPARAM_TimeLimit                               3600
CPXPARAM_MIP_Tolerances_MIPGap                   0.029999999999999999
Tried aggregator 2 times.
MIP Presolve eliminated 1313 rows and 735 columns.
Aggregator did 406 substitutions.
Reduced MIP has 15811 rows, 14445 columns, and 70786 nonzeros.
Reduced MIP has 13722 binaries, 723 generals, 0 SOSs, and 0 indicators.
Presolve time = 0.05 sec. (45.17 ticks)
Probing time = 0.04 sec. (8.20 ticks)
Tried aggregator 1 time.
Detecting symmetries...
Reduced MIP has 15811 rows, 14445 columns, and 70786 nonzeros.
Reduced MIP has 13722 binaries, 723 generals, 0 SOSs, and 0 indicators.
Presolve time = 0.04 sec. (40.73 ticks)
Probing time = 0.03 sec. (7.75 ticks)
Clique table members: 17554.
MIP emphasis: heuristic.
MIP search method: dynamic search.
Parallel mode: deterministic, using up to 8 threads.
Root relaxation solution time = 1.07 sec. (929.79 ticks)

        Nodes                                         Cuts/
   Node  Left     Objective  IInf  Best Integer    Best Bound    ItCnt     Gap

      0     0      855.5000   178                    855.5000       23         
*     0+    0                          860.0000      855.5000             0.52%
Version identifier: 22.1.1.0 | 2022-11-28 | 9160aff4d
CPXPARAM_Threads                                 8
CPXPARAM_Emphasis_MIP                            5
CPXPARAM_TimeLimit                               3600
CPXPARAM_MIP_Tolerances_MIPGap                   0.029999999999999999
Tried aggregator 2 times.
MIP Presolve eliminated 1645 rows and 1030 columns.
Aggregator did 420 substitutions.
Reduced MIP has 24440 rows, 22387 columns, and 109981 nonzeros.
Reduced MIP has 21269 binaries, 1118 generals, 0 SOSs, and 0 indicators.
Presolve time = 0.08 sec. (69.84 ticks)
Probing time = 0.06 sec. (10.85 ticks)
Tried aggregator 1 time.
Detecting symmetries...
Reduced MIP has 24440 rows, 22387 columns, and 109981 nonzeros.
Reduced MIP has 21269 binaries, 1118 generals, 0 SOSs, and 0 indicators.
Presolve time = 0.07 sec. (63.07 ticks)
Probing time = 0.04 sec. (10.61 ticks)
Clique table members: 44842.
MIP emphasis: heuristic.
MIP search method: dynamic search.
Parallel mode: deterministic, using up to 8 threads.
Root relaxation solution time = 1.92 sec. (1660.41 ticks)

        Nodes                                         Cuts/
   Node  Left     Objective  IInf  Best Integer    Best Bound    ItCnt     Gap

      0     0     1032.0000   268                   1032.0000       28         
*     0+    0                         1168.0000     1032.0000            11.64%
*     0+    0                         1059.0000     1032.0000             2.55%
Version identifier: 22.1.1.0 | 2022-11-28 | 9160aff4d
CPXPARAM_Threads                                 8
CPXPARAM_Emphasis_MIP                            5
CPXPARAM_TimeLimit                               3600
CPXPARAM_MIP_Tolerances_MIPGap                   0.029999999999999999
Tried aggregator 2 times.
MIP Presolve eliminated 2033 rows and 1368 columns.
Aggregator did 464 substitutions.
Reduced MIP has 31457 rows, 28863 columns, and 141972 nonzeros.
Reduced MIP has 27417 binaries, 1446 generals, 0 SOSs, and 0 indicators.
Presolve time = 0.11 sec. (90.84 ticks)
Probing fixed 1 vars, tightened 1 bounds.
Probing time = 0.12 sec. (25.28 ticks)
Tried aggregator 1 time.
Detecting symmetries...
MIP Presolve eliminated 1 rows and 1 columns.
Reduced MIP has 31456 rows, 28862 columns, and 141967 nonzeros.
Reduced MIP has 27416 binaries, 1446 generals, 0 SOSs, and 0 indicators.
Presolve time = 0.10 sec. (81.37 ticks)
Probing time = 0.05 sec. (13.01 ticks)
Clique table members: 88600.
MIP emphasis: heuristic.
MIP search method: dynamic search.
Parallel mode: deterministic, using up to 8 threads.
Root relaxation solution time = 3.36 sec. (2671.37 ticks)

        Nodes                                         Cuts/
   Node  Left     Objective  IInf  Best Integer    Best Bound    ItCnt     Gap

      0     0     1330.5000   450                   1330.5000       29         
*     0+    0                         1396.0000     1330.5000             4.69%
*     0+    0                         1340.0000     1330.5000             0.71%
      0     0        cutoff           1340.0000     1330.5000      264    0.71%
Elapsed time = 13.15 sec. (12509.78 ticks, tree = 0.01 MB, solutions = 2)
Version identifier: 22.1.1.0 | 2022-11-28 | 9160aff4d
CPXPARAM_Threads                                 8
CPXPARAM_Emphasis_MIP                            5
CPXPARAM_TimeLimit                               3600
CPXPARAM_MIP_Tolerances_MIPGap                   0.029999999999999999
Tried aggregator 2 times.
MIP Presolve eliminated 2399 rows and 1697 columns.
Aggregator did 436 substitutions.
Reduced MIP has 39403 rows, 36166 columns, and 177637 nonzeros.
Reduced MIP has 34356 binaries, 1810 generals, 0 SOSs, and 0 indicators.
Presolve time = 0.15 sec. (111.38 ticks)
Probing fixed 1 vars, tightened 1 bounds.
Probing time = 0.17 sec. (31.96 ticks)
Tried aggregator 1 time.
Detecting symmetries...
MIP Presolve eliminated 1 rows and 1 columns.
Reduced MIP has 39402 rows, 36165 columns, and 177632 nonzeros.
Reduced MIP has 34355 binaries, 1810 generals, 0 SOSs, and 0 indicators.
Presolve time = 0.14 sec. (101.81 ticks)
Probing time = 0.06 sec. (16.00 ticks)
Clique table members: 117932.
MIP emphasis: heuristic.
MIP search method: dynamic search.
Parallel mode: deterministic, using up to 8 threads.
Root relaxation solution time = 5.88 sec. (3701.05 ticks)

        Nodes                                         Cuts/
   Node  Left     Objective  IInf  Best Integer    Best Bound    ItCnt     Gap

      0     0     1618.0000   192                   1618.0000       39         
*     0+    0                         1618.0000     1618.0000             0.00%
      0     0        cutoff           1618.0000     1618.0000       39    0.00%
Elapsed time = 14.86 sec. (12514.36 ticks, tree = 0.01 MB, solutions = 1)

Zero-half cuts applied:  8
Lift and project cuts applied:  1
Gomory fractional cuts applied:  5

Root node processing (before b&c):
  Real time             =   13.15 sec. (12511.53 ticks)
Parallel b&c, 8 threads:
  Real time             =    0.00 sec. (0.00 ticks)
  Sync time (average)   =    0.00 sec.
  Wait time (average)   =    0.00 sec.
                          ------------
Total (root+branch&cut) =   13.15 sec. (12511.53 ticks)

Zero-half cuts applied:  12
Gomory fractional cuts applied:  5

Root node processing (before b&c):
  Real time             =    9.09 sec. (8824.54 ticks)
Parallel b&c, 8 threads:
  Real time             =    0.00 sec. (0.00 ticks)
  Sync time (average)   =    0.00 sec.
  Wait time (average)   =    0.00 sec.
                          ------------
Total (root+branch&cut) =    9.09 sec. (8824.54 ticks)

Root node processing (before b&c):
  Real time             =    1.99 sec. (1588.29 ticks)
Parallel b&c, 8 threads:
  Real time             =    0.00 sec. (0.00 ticks)
  Sync time (average)   =    0.00 sec.
  Wait time (average)   =    0.00 sec.
                          ------------
Total (root+branch&cut) =    1.99 sec. (1588.29 ticks)
Version identifier: 22.1.1.0 | 2022-11-28 | 9160aff4d
CPXPARAM_Threads                                 8
CPXPARAM_Emphasis_MIP                            5
CPXPARAM_TimeLimit                               3600
CPXPARAM_MIP_Tolerances_MIPGap                   0.029999999999999999
Tried aggregator 2 times.
MIP Presolve eliminated 3032 rows and 2275 columns.
Aggregator did 461 substitutions.
Reduced MIP has 44915 rows, 41163 columns, and 202316 nonzeros.
Reduced MIP has 39104 binaries, 2059 generals, 0 SOSs, and 0 indicators.
Presolve time = 0.17 sec. (127.50 ticks)
Probing time = 0.13 sec. (19.77 ticks)
Tried aggregator 1 time.
Detecting symmetries...
Reduced MIP has 44915 rows, 41163 columns, and 202316 nonzeros.
Reduced MIP has 39104 binaries, 2059 generals, 0 SOSs, and 0 indicators.
Presolve time = 0.19 sec. (115.93 ticks)
Probing time = 0.07 sec. (17.88 ticks)
Clique table members: 98944.
MIP emphasis: heuristic.
MIP search method: dynamic search.
Parallel mode: deterministic, using up to 8 threads.
Root relaxation solution time = 9.57 sec. (5354.63 ticks)

        Nodes                                         Cuts/
   Node  Left     Objective  IInf  Best Integer    Best Bound    ItCnt     Gap

      0     0     2188.0000   414                   2188.0000       43         
*     0+    0                         3543.0000     2188.0000            38.24%
Heuristic still looking.
*     0+    0                         2721.0000     2188.0000            19.59%
*     0+    0                         2190.0000     2188.0000             0.09%

Zero-half cuts applied:  3
Lift and project cuts applied:  1
Gomory fractional cuts applied:  3

Root node processing (before b&c):
  Real time             =   42.67 sec. (32637.97 ticks)
Parallel b&c, 8 threads:
  Real time             =    0.00 sec. (0.00 ticks)
  Sync time (average)   =    0.00 sec.
  Wait time (average)   =    0.00 sec.
                          ------------
Total (root+branch&cut) =   42.67 sec. (32637.97 ticks)

Root node processing (before b&c):
  Real time             =   14.86 sec. (12515.64 ticks)
Parallel b&c, 8 threads:
  Real time             =    0.00 sec. (0.00 ticks)
  Sync time (average)   =    0.00 sec.
  Wait time (average)   =    0.00 sec.
                          ------------
Total (root+branch&cut) =   14.86 sec. (12515.64 ticks)
Version identifier: 22.1.1.0 | 2022-11-28 | 9160aff4d
CPXPARAM_Threads                                 8
CPXPARAM_Emphasis_MIP                            5
CPXPARAM_TimeLimit                               3600
CPXPARAM_MIP_Tolerances_MIPGap                   0.029999999999999999
Tried aggregator 2 times.
MIP Presolve eliminated 1313 rows and 735 columns.
Aggregator did 406 substitutions.
Reduced MIP has 15811 rows, 14445 columns, and 70786 nonzeros.
Reduced MIP has 13722 binaries, 723 generals, 0 SOSs, and 0 indicators.
Presolve time = 0.05 sec. (45.17 ticks)
Probing time = 0.04 sec. (8.20 ticks)
Tried aggregator 1 time.
Detecting symmetries...
Reduced MIP has 15811 rows, 14445 columns, and 70786 nonzeros.
Reduced MIP has 13722 binaries, 723 generals, 0 SOSs, and 0 indicators.
Presolve time = 0.04 sec. (40.73 ticks)
Probing time = 0.03 sec. (7.75 ticks)
Clique table members: 17554.
MIP emphasis: heuristic.
MIP search method: dynamic search.
Parallel mode: deterministic, using up to 8 threads.
Root relaxation solution time = 1.06 sec. (929.79 ticks)

        Nodes                                         Cuts/
   Node  Left     Objective  IInf  Best Integer    Best Bound    ItCnt     Gap

      0     0      855.5000   178                    855.5000       23         
*     0+    0                          860.0000      855.5000             0.52%
Version identifier: 22.1.1.0 | 2022-11-28 | 9160aff4d
CPXPARAM_Threads                                 8
CPXPARAM_Emphasis_MIP                            5
CPXPARAM_TimeLimit                               3600
CPXPARAM_MIP_Tolerances_MIPGap                   0.029999999999999999
Tried aggregator 2 times.
MIP Presolve eliminated 1645 rows and 1030 columns.
Aggregator did 420 substitutions.
Reduced MIP has 24440 rows, 22387 columns, and 109981 nonzeros.
Reduced MIP has 21269 binaries, 1118 generals, 0 SOSs, and 0 indicators.
Presolve time = 0.08 sec. (69.84 ticks)
Probing time = 0.06 sec. (10.85 ticks)
Tried aggregator 1 time.
Detecting symmetries...
Reduced MIP has 24440 rows, 22387 columns, and 109981 nonzeros.
Reduced MIP has 21269 binaries, 1118 generals, 0 SOSs, and 0 indicators.
Presolve time = 0.07 sec. (63.07 ticks)
Probing time = 0.04 sec. (10.61 ticks)
Clique table members: 44842.
MIP emphasis: heuristic.
MIP search method: dynamic search.
Parallel mode: deterministic, using up to 8 threads.
Root relaxation solution time = 1.96 sec. (1660.41 ticks)

        Nodes                                         Cuts/
   Node  Left     Objective  IInf  Best Integer    Best Bound    ItCnt     Gap

      0     0     1032.0000   268                   1032.0000       28         
*     0+    0                         1168.0000     1032.0000            11.64%
*     0+    0                         1059.0000     1032.0000             2.55%
Version identifier: 22.1.1.0 | 2022-11-28 | 9160aff4d
CPXPARAM_Threads                                 8
CPXPARAM_Emphasis_MIP                            5
CPXPARAM_TimeLimit                               3600
CPXPARAM_MIP_Tolerances_MIPGap                   0.029999999999999999
Tried aggregator 2 times.
MIP Presolve eliminated 2033 rows and 1368 columns.
Aggregator did 464 substitutions.
Reduced MIP has 31457 rows, 28863 columns, and 141972 nonzeros.
Reduced MIP has 27417 binaries, 1446 generals, 0 SOSs, and 0 indicators.
Presolve time = 0.10 sec. (90.84 ticks)
Probing fixed 1 vars, tightened 1 bounds.
Probing time = 0.11 sec. (25.28 ticks)
Tried aggregator 1 time.
Detecting symmetries...
MIP Presolve eliminated 1 rows and 1 columns.
Reduced MIP has 31456 rows, 28862 columns, and 141967 nonzeros.
Reduced MIP has 27416 binaries, 1446 generals, 0 SOSs, and 0 indicators.
Presolve time = 0.09 sec. (81.37 ticks)
Probing time = 0.04 sec. (13.01 ticks)
Clique table members: 88600.
MIP emphasis: heuristic.
MIP search method: dynamic search.
Parallel mode: deterministic, using up to 8 threads.
Root relaxation solution time = 3.36 sec. (2671.37 ticks)

        Nodes                                         Cuts/
   Node  Left     Objective  IInf  Best Integer    Best Bound    ItCnt     Gap

      0     0     1330.5000   450                   1330.5000       29         
*     0+    0                         1396.0000     1330.5000             4.69%
*     0+    0                         1340.0000     1330.5000             0.71%
      0     0        cutoff           1340.0000     1330.5000      264    0.71%
Elapsed time = 12.67 sec. (12509.78 ticks, tree = 0.01 MB, solutions = 2)
Version identifier: 22.1.1.0 | 2022-11-28 | 9160aff4d
CPXPARAM_Threads                                 8
CPXPARAM_Emphasis_MIP                            5
CPXPARAM_TimeLimit                               3600
CPXPARAM_MIP_Tolerances_MIPGap                   0.029999999999999999
Tried aggregator 2 times.
MIP Presolve eliminated 2399 rows and 1697 columns.
Aggregator did 436 substitutions.
Reduced MIP has 39403 rows, 36166 columns, and 177637 nonzeros.
Reduced MIP has 34356 binaries, 1810 generals, 0 SOSs, and 0 indicators.
Presolve time = 0.12 sec. (111.38 ticks)
Probing fixed 1 vars, tightened 1 bounds.
Probing time = 0.15 sec. (31.96 ticks)
Tried aggregator 1 time.
Detecting symmetries...
MIP Presolve eliminated 1 rows and 1 columns.
Reduced MIP has 39402 rows, 36165 columns, and 177632 nonzeros.
Reduced MIP has 34355 binaries, 1810 generals, 0 SOSs, and 0 indicators.
Presolve time = 0.13 sec. (101.81 ticks)
Probing time = 0.05 sec. (16.00 ticks)
Clique table members: 117932.
MIP emphasis: heuristic.
MIP search method: dynamic search.
Parallel mode: deterministic, using up to 8 threads.
Root relaxation solution time = 5.65 sec. (3701.05 ticks)

        Nodes                                         Cuts/
   Node  Left     Objective  IInf  Best Integer    Best Bound    ItCnt     Gap

      0     0     1618.0000   192                   1618.0000       39         
*     0+    0                         1618.0000     1618.0000             0.00%
      0     0        cutoff           1618.0000     1618.0000       39    0.00%
Elapsed time = 15.12 sec. (12514.36 ticks, tree = 0.01 MB, solutions = 1)

Zero-half cuts applied:  8
Lift and project cuts applied:  1
Gomory fractional cuts applied:  5

Root node processing (before b&c):
  Real time             =   12.68 sec. (12511.53 ticks)
Parallel b&c, 8 threads:
  Real time             =    0.00 sec. (0.00 ticks)
  Sync time (average)   =    0.00 sec.
  Wait time (average)   =    0.00 sec.
                          ------------
Total (root+branch&cut) =   12.68 sec. (12511.53 ticks)

Zero-half cuts applied:  12
Gomory fractional cuts applied:  5

Root node processing (before b&c):
  Real time             =    8.99 sec. (8824.54 ticks)
Parallel b&c, 8 threads:
  Real time             =    0.00 sec. (0.00 ticks)
  Sync time (average)   =    0.00 sec.
  Wait time (average)   =    0.00 sec.
                          ------------
Total (root+branch&cut) =    8.99 sec. (8824.54 ticks)

Root node processing (before b&c):
  Real time             =    1.98 sec. (1588.29 ticks)
Parallel b&c, 8 threads:
  Real time             =    0.00 sec. (0.00 ticks)
  Sync time (average)   =    0.00 sec.
  Wait time (average)   =    0.00 sec.
                          ------------
Total (root+branch&cut) =    1.98 sec. (1588.29 ticks)
Version identifier: 22.1.1.0 | 2022-11-28 | 9160aff4d
CPXPARAM_Threads                                 8
CPXPARAM_Emphasis_MIP                            5
CPXPARAM_TimeLimit                               3600
CPXPARAM_MIP_Tolerances_MIPGap                   0.029999999999999999
Tried aggregator 2 times.
MIP Presolve eliminated 3032 rows and 2275 columns.
Aggregator did 461 substitutions.
Reduced MIP has 44915 rows, 41163 columns, and 202316 nonzeros.
Reduced MIP has 39104 binaries, 2059 generals, 0 SOSs, and 0 indicators.
Presolve time = 0.17 sec. (127.50 ticks)
Probing time = 0.13 sec. (19.77 ticks)
Tried aggregator 1 time.
Detecting symmetries...
Reduced MIP has 44915 rows, 41163 columns, and 202316 nonzeros.
Reduced MIP has 39104 binaries, 2059 generals, 0 SOSs, and 0 indicators.
Presolve time = 0.17 sec. (115.93 ticks)
Probing time = 0.07 sec. (17.88 ticks)
Clique table members: 98944.
MIP emphasis: heuristic.
MIP search method: dynamic search.
Parallel mode: deterministic, using up to 8 threads.
Root relaxation solution time = 10.41 sec. (5354.63 ticks)

        Nodes                                         Cuts/
   Node  Left     Objective  IInf  Best Integer    Best Bound    ItCnt     Gap

      0     0     2188.0000   414                   2188.0000       43         
*     0+    0                         3543.0000     2188.0000            38.24%
Heuristic still looking.
*     0+    0                         2721.0000     2188.0000            19.59%
*     0+    0                         2190.0000     2188.0000             0.09%

Zero-half cuts applied:  3
Lift and project cuts applied:  1
Gomory fractional cuts applied:  3

Root node processing (before b&c):
  Real time             =   45.26 sec. (32637.97 ticks)
Parallel b&c, 8 threads:
  Real time             =    0.00 sec. (0.00 ticks)
  Sync time (average)   =    0.00 sec.
  Wait time (average)   =    0.00 sec.
                          ------------
Total (root+branch&cut) =   45.26 sec. (32637.97 ticks)

Root node processing (before b&c):
  Real time             =   15.12 sec. (12515.64 ticks)
Parallel b&c, 8 threads:
  Real time             =    0.00 sec. (0.00 ticks)
  Sync time (average)   =    0.00 sec.
  Wait time (average)   =    0.00 sec.
                          ------------
Total (root+branch&cut) =   15.12 sec. (12515.64 ticks)
